<?xml version = "1.0" standalone="yes"?>
<!-- This file has been generated by DOcplex version 2.23.222  -->
<CPLEXSolution version="1.0">
 <header
   problemName="CVRP"
   objectiveValue="7946.85"
  />
 <variables>
  <variable name="x_0_1" index="0" value="1.00000"/>
  <variable name="x_0_2" index="1" value="1.00000"/>
  <variable name="x_0_3" index="2" value="1.00000"/>
  <variable name="x_0_4" index="3" value="1.00000"/>
  <variable name="x_0_9" index="8" value="1.00000"/>
  <variable name="x_0_10" index="9" value="1.00000"/>
  <variable name="x_0_13" index="12" value="1.00000"/>
  <variable name="x_0_14" index="13" value="1.00000"/>
  <variable name="x_1_0" index="14" value="1.00000"/>
  <variable name="x_2_8" index="35" value="1.00000"/>
  <variable name="x_3_5" index="46" value="1.00000"/>
  <variable name="x_4_12" index="67" value="1.00000"/>
  <variable name="x_5_0" index="70" value="1.00000"/>
  <variable name="x_6_0" index="84" value="1.00000"/>
  <variable name="x_7_0" index="98" value="1.00000"/>
  <variable name="x_8_0" index="112" value="1.00000"/>
  <variable name="x_9_6" index="132" value="1.00000"/>
  <variable name="x_10_0" index="140" value="1.00000"/>
  <variable name="x_11_0" index="154" value="1.00000"/>
  <variable name="x_12_7" index="175" value="1.00000"/>
  <variable name="x_13_0" index="182" value="1.00000"/>
  <variable name="x_14_11" index="207" value="1.00000"/>
  <variable name="u_1" index="210" value="54.00000"/>
  <variable name="u_2" index="211" value="41.00000"/>
  <variable name="u_3" index="212" value="31.00000"/>
  <variable name="u_4" index="213" value="26.00000"/>
  <variable name="u_5" index="214" value="49.00000"/>
  <variable name="u_6" index="215" value="52.00000"/>
  <variable name="u_7" index="216" value="52.00000"/>
  <variable name="u_8" index="217" value="53.00000"/>
  <variable name="u_9" index="218" value="29.00000"/>
  <variable name="u_10" index="219" value="47.00000"/>
  <variable name="u_11" index="220" value="54.00000"/>
  <variable name="u_12" index="221" value="39.00000"/>
  <variable name="u_13" index="222" value="51.00000"/>
  <variable name="u_14" index="223" value="24.00000"/>
 </variables>
</CPLEXSolution>
